NAME: tsp_295
COMMENT: Random TSP instance
TYPE: TSP
DIMENSION: 50
EDGE_WEIGHT_TYPE: EUC_2D
NODE_COORD_SECTION
1 548 361
2 651 460
3 42 554
4 473 0
5 861 734
6 368 915
7 268 346
8 432 335
9 71 338
10 148 924
11 228 801
12 286 645
13 154 133
14 916 990
15 744 259
16 577 49
17 784 190
18 134 423
19 0 828
20 662 375
21 93 832
22 961 714
23 496 857
24 176 898
25 746 723
26 489 223
27 482 507
28 938 627
29 565 795
30 60 554
31 864 144
32 978 131
33 425 209
34 983 319
35 514 808
36 52 207
37 608 385
38 257 404
39 486 938
40 530 660
41 610 703
42 605 930
43 826 21
44 656 380
45 106 342
46 884 291
47 957 144
48 138 257
49 176 228
50 837 588
